# Solution for model FSG
# Objective value = 8.7786911131411694e+02
x_0_1 0
x_0_2 1
x_0_3 1
x_0_4 0
x_0_5 1
x_0_6 0
x_0_7 0
x_0_8 0
x_0_9 0
x_0_10 0
x_1_2 0
x_1_3 0
x_1_4 0
x_1_5 0
x_1_6 0
x_1_7 1
x_1_8 0
x_1_9 0
x_1_10 0
x_2_1 1
x_2_3 0
x_2_4 0
x_2_5 0
x_2_6 0
x_2_7 0
x_2_8 0
x_2_9 0
x_2_10 0
x_3_1 0
x_3_2 0
x_3_4 1
x_3_5 0
x_3_6 0
x_3_7 0
x_3_8 0
x_3_9 0
x_3_10 0
x_4_1 0
x_4_2 0
x_4_3 0
x_4_5 0
x_4_6 0
x_4_7 0
x_4_8 1
x_4_9 0
x_4_10 0
x_5_1 0
x_5_2 0
x_5_3 0
x_5_4 0
x_5_6 1
x_5_7 0
x_5_8 0
x_5_9 0
x_5_10 0
x_6_1 0
x_6_2 0
x_6_3 0
x_6_4 0
x_6_5 0
x_6_7 0
x_6_8 0
x_6_9 1
x_6_10 0
x_7_1 0
x_7_2 0
x_7_3 0
x_7_4 0
x_7_5 0
x_7_6 0
x_7_8 0
x_7_9 0
x_7_10 1
U_1_1 1
U_1_2 0
U_1_3 0
U_2_1 1
U_2_2 0
U_2_3 0
U_3_1 0
U_3_2 0
U_3_3 1
U_4_1 0
U_4_2 0
U_4_3 1
U_5_1 0
U_5_2 0
U_5_3 1
U_6_1 0
U_6_2 0
U_6_3 1
U_7_1 0
U_7_2 0
U_7_3 1
U_8_1 0
U_8_2 0
U_8_3 1
U_9_1 0
U_9_2 0
U_9_3 1
U_10_1 0
U_10_2 0
U_10_3 1
TBar_0 0
TBar_1 10
TBar_2 2.5902316498722655e+00
TBar_3 20
TBar_4 2.3631377149236911e+01
TBar_5 20
TBar_6 2.2469109151090734e+01
TBar_7 20
TBar_8 30
TBar_9 30
TBar_10 30
y_0_1_1 0
y_0_2_1 0
y_0_3_1 0
y_0_4_1 0
y_0_5_1 0
y_0_6_1 0
y_0_7_1 0
y_0_8_1 0
y_0_9_1 0
y_0_10_1 0
y_1_2_1 0
y_1_3_1 0
y_1_4_1 0
y_1_5_1 0
y_1_6_1 0
y_1_7_1 1
y_1_8_1 0
y_1_9_1 0
y_1_10_1 0
y_2_1_1 0
y_2_3_1 0
y_2_4_1 0
y_2_5_1 0
y_2_6_1 0
y_2_7_1 0
y_2_8_1 0
y_2_9_1 0
y_2_10_1 0
y_3_1_1 0
y_3_2_1 0
y_3_4_1 0
y_3_5_1 0
y_3_6_1 0
y_3_7_1 0
y_3_8_1 0
y_3_9_1 0
y_3_10_1 0
y_4_1_1 0
y_4_2_1 0
y_4_3_1 0
y_4_5_1 0
y_4_6_1 0
y_4_7_1 0
y_4_8_1 0
y_4_9_1 0
y_4_10_1 0
y_5_1_1 0
y_5_2_1 0
y_5_3_1 0
y_5_4_1 0
y_5_6_1 0
y_5_7_1 0
y_5_8_1 0
y_5_9_1 0
y_5_10_1 0
y_6_1_1 0
y_6_2_1 0
y_6_3_1 0
y_6_4_1 0
y_6_5_1 0
y_6_7_1 0
y_6_8_1 0
y_6_9_1 1
y_6_10_1 0
y_7_1_1 0
y_7_2_1 0
y_7_3_1 0
y_7_4_1 0
y_7_5_1 0
y_7_6_1 0
y_7_8_1 0
y_7_9_1 0
y_7_10_1 1
Q_0_1 0
Q_1_1 1.3245000000000059e+02
Q_2_1 8.6574000000000723e+01
Q_3_1 4.6786000000000655e+01
Q_4_1 1.2193800000000087e+02
Q_5_1 6.6021999999999423e+01
Q_6_1 128.753999999999
Q_7_1 1.6918400000000145e+02
Q_8_1 1.2193800000000087e+02
Q_9_1 128.753999999999
Q_10_1 1.6918400000000145e+02
R_8_1 1.9380000000008692e+00
R_9_1 8.7539999999989959e+00
R_10_1 4.9184000000001447e+01
L_1_1 1.1056000000000001e+01
L_2_1 14.557
L_3_1 0
L_4_1 0
L_5_1 0
L_6_1 0
L_7_1 0
rho_1_1 1
rho_2_1 0
rho_3_1 0
rho_4_1 1
rho_5_1 0
rho_6_1 1
rho_7_1 1
lambd_1_1 0
lambd_2_1 0
lambd_3_1 0
lambd_4_1 0
lambd_5_1 0
lambd_6_1 0
lambd_7_1 0
alpha_1_1 1
alpha_2_1 0
alpha_3_1 0
alpha_4_1 0
alpha_5_1 0
alpha_6_1 1
alpha_7_1 0
